Route #1: 26 9 16 23 12 50 45 4
Route #2: 22 17 49 15 19 32 34 13 46 38 2
Route #3: 48 21 14 39 24 31 28 11 3
Route #4: 51 5 8 27 29 10 44
Route #5: 37 47 33 35 7 43
Route #6: 40 42 20 18 30 1
Route #7: 41 25 6 36
Cost 765.7897912810336